
<<< setup


<<< generate

CPXPARAM_Simplex_Tolerances_Optimality           0.001
CPXPARAM_Simplex_Tolerances_Feasibility          0.001
CPXPARAM_TimeLimit                               3600
CPXPARAM_Threads                                 8
CPXPARAM_MIP_Tolerances_AbsMIPGap                0.001
CPXPARAM_MIP_Tolerances_MIPGap                   0.001
CPXPARAM_MIP_Tolerances_Integrality              0.001
CPXPARAM_MIP_Display                             4
CPXPARAM_MIP_PolishAfter_Solutions               1
Tried aggregator 1 time.
MIQCP Presolve eliminated 2 rows and 2 columns.
Reduced MIQCP has 71 rows, 263 columns, and 2349 nonzeros.
Reduced MIQCP has 0 binaries, 32 generals, 0 SOSs, and 0 indicators.
Reduced MIQCP has 4 quadratic constraints.
Presolve time = 0.02 sec. (0.67 ticks)
MIP emphasis: balance optimality and feasibility.
MIP search method: dynamic search.
Parallel mode: deterministic, using up to 8 threads.
Dual infeasible due to empty column 'x(2)'.
Presolve time = 0.00 sec. (0.10 ticks)
Tried aggregator 1 time.
LP Presolve eliminated 67 rows and 67 columns.
Aggregator did 2 substitutions.
Reduced LP has 2 rows, 194 columns, and 130 nonzeros.
Presolve time = 0.00 sec. (0.14 ticks)
Initializing dual steep norms . . .

Iteration log . . .
Iteration:     1    Scaled infeas =             0.000000
Root relaxation solution time = 0.00 sec. (0.42 ticks)

        Nodes                                         Cuts/
   Node  Left     Objective  IInf  Best Integer    Best Bound    ItCnt     Gap

      0     0     1602.3531    32                   1602.3531       29         
      0     2   -48705.4377    32                   1602.3531       47         
Elapsed time = 1.13 sec. (253.23 ticks, tree = 0.01 MB, solutions = 0)
*     4+    1                         6514.7704     1602.3531            75.40%
Found incumbent of value 6514.770358 after 1.17 sec. (347.49 ticks)
*     7+    3                        -8264.9437     1602.3531          -119.39%
Found incumbent of value -8264.943702 after 1.20 sec. (436.09 ticks)

Starting condition for polishing reached (PolishAfterIntSol).
Starting solution polishing.


Root node processing (before b&c):
  Real time             =    1.13 sec. (238.59 ticks)
Parallel b&c, 8 threads:
  Real time             =    0.08 sec. (197.64 ticks)
  Sync time (average)   =    0.03 sec.
  Wait time (average)   =    0.00 sec.
                          ------------
Total (root+branch&cut) =    1.20 sec. (436.24 ticks)

<<< solve


OBJECTIVE: -8264.944
X*: [9994.2 10004 9996.5 10004 9997 10004 9996.5 10004 9996.5 10004 9996.5 10004
     9996.5 10004 9996.5 10004 9996.4 10004 9996.5 10004 9996.5 10004 9996.5
     10004 9996.5 10004 9996.5 10004 9996.5 10004 9996.5 10004] Z*: [9996 10004 9996 10004 9997 10004 9996 10004 9996 10004 9996 10004 9996 10004
     9996 10004 9996 10004 9996 10004 9996 10004 9996 10004 9996 10004 9996
     10004 9996 10004 9996 10004]
f*:7214.983559491

<<< post process


<<< done

